CMD:
./solvers/bin/cadical --plain --no-reduce -t 1600 ./data/cnfs//oski2b5i/oski2b5i.71.cnf

c --- [ banner ] -------------------------------------------------------------
c 
c CaDiCaL SAT Solver
c Copyright (c) 2016-2024
c A. Biere, M. Fleury, N. Froleyks, K. Fazekas, F. Pollitt, T. Faller
c JKU Linz, University of Freiburg, TU Wien
c 
c Version 2.1.3 5296d3d2a9bf48c154ab2acb5e44625776d821bf
c g++ (Gentoo 12.3.1_p20230526 p2) 12.3.1 20230526 -Wall -Wextra -O3 -DNDEBUG
c Sat Aug 9 07:26:21 PDT 2025 Linux cedar2.int.cedar.computecanada.ca 5.14.0-362.24.2.el9_3.x86_64 x86_64
c 
c --- [ limit ] --------------------------------------------------------------
c 
c setting time limit to 1600 seconds real time (due to '-t 1600')
c 
c --- [ parsing input ] ------------------------------------------------------
c 
c reading DIMACS file from './data/cnfs//oski2b5i/oski2b5i.71.cnf'
c opening file to read './data/cnfs//oski2b5i/oski2b5i.71.cnf'
c found 'p cnf 13680832 38160149' header
c parsed 38160149 clauses in 7.88 seconds process time
c 
c --- [ options ] ------------------------------------------------------------
c 
c   --compact=false                (different from default 'true')
c   --decompose=false              (different from default 'true')
c   --deduplicate=false            (different from default 'true')
c   --elim=false                   (different from default 'true')
c   --probe=false                  (different from default 'true')
c   --reduce=false                 (different from default 'true')
c   --subsume=false                (different from default 'true')
c   --ternary=false                (different from default 'true')
c   --transred=false               (different from default 'true')
c   --vivify=false                 (different from default 'true')
c 
c --- [ solving ] ------------------------------------------------------------
c 
c time measured in process time since initialization
c 
c  seconds    reductions  redundant   irredundant
c          MB     restarts       trail          variables
c            level   conflicts       glue             remaining
c 
c *  7.88 5663  0 0   0    0    0  0% 0 34279734 7958408 58%
c {  9.11 5703  0 0   0    0    0  0% 0 34279734 7958408 58%
c i  9.12 5703  7 0   0    2    1 42% 0 34279734 7958387 58%
c i 11.24 5707 5552 0   2  474  447 44% 2 34279734 7958124 58%
c i 15.11 5709 8011 0  41  653  604 44% 2 34279734 7958119 58%
c i 17.47 5711 9073 0  72  850  777 45% 2 34279734 7958118 58%
c i 17.47 5711 9062 0  72  851  777 45% 2 34279734 7958117 58%
c i 17.47 5711 9050 0  72  852  777 45% 2 34279734 7958116 58%
c } 17.53 5711 7704 0  74 1000  924 44% 2 34279734 7958116 58%
c [ 17.53 5711  0 0  74 1000  924  0% 0 34279734 7958116 58%
c O 18.27 5711 7466 0  74 1002  925 46% 0 34279734 7958116 58%
c i 18.27 5711 7466 0  74 1002  925 46% 0 34279734 7958115 58%
c i 18.27 5711 4978 0  74 1003  925 45% 0 34279734 7958114 58%
c i 18.28 5711 3734 0  74 1004  925 44% 0 34279734 7958113 58%
c i 18.28 5711 2987 0  74 1005  925 43% 0 34279734 7958112 58%
c ] 22.15 5737 8109 0  74 1008  928 45% 1 34279734 7958112 58%
c 1 22.15 5737 8109 0  74 1008  928 45% 1 34279734 7958112 58%
c 
c --- [ result ] -------------------------------------------------------------
c 
s SATISFIABLE
v 1 2 3 4 5 6 7 8 9 10 11 12 13 14 15 16 17 18 19 20 21 22 23 24 25 26 27 28
v 29 30 31 32 33 34 35 36 37 38 39 40 41 42 43 44 45 46 47 48 49 50 51 52 53
v 54 55 56 57 58 59 60 61 62 63 64 65 66 67 68 69 70 71 72 73 74 75 76 77 78
v 79 80 81 82 83 84 85 86 87 88 89 90 91 92 93 94 95 96 97 98 99 100 101 102
v 103 104 105 106 107 108 109 110 111 112 113 114 115 116 117 118 119 120 121
v 122 123 124 125 126 127 128 129 130 131 132 133 134 135 136 137 138 139 140
v 141 142 143 144 145 146 147 148 149 150 151 152 153 154 155 156 157 158 159
v 160 161 162 163 164 165 166 167 168 169 170 171 172 173 174 175 176 177 178
v 179 180 181 182 183 184 185 186 187 188 189 190 191 192 193 194 195 196 197
v 198 199 200 201 202 203 204 205 206 207 208 209 210 211 212 213 214 215 216
v 217 218 219 220 221 222 223 224 225 226 227 228 229 230 231 232 233 234 235
v 236 237 238 239 240 241 242 243 244 245 246 247 248 249 250 251 252 253 254
v 255 256 257 258 259 260 261 262 263 264 265 266 267 268 269 270 271 272 273
v 274 275 276 277 278 279 280 281 282 283 284 285 286 287 288 289 290 291 292
v 293 294 295 296 297 298 299 300 301 302 303 304 305 306 307 308 309 310 311
v 312 313 314 315 316 317 318 319 320 321 322 323 324 325 326 327 328 329 330
v 331 332 333 334 335 336 337 338 339 340 341 342 343 344 345 346 347 348 349
v 350 351 352 353 354 355 356 357 358 359 360 361 362 363 364 365 366 367 368
v 369 370 371 372 373 374 375 376 377 378 379 380 381 382 383 384 385 386 387
v 388 389 390 391 392 393 394 395 396 397 398 399 400 401 402 403 404 405 406
v 407 408 409 410 411 412 413 414 415 416 417 418 419 420 421 422 423 424 425
v 426 427 428 429 430 431 432 433 434 435 436 437 438 439 440 441 442 443 444
v 445 446 447 448 449 450 451 452 453 454 455 456 457 458 459 460 461 462 463
v 464 465 466 467 468 469 470 471 472 473 474 475 476 477 478 479 480 481 482
v 483 484 485 486 487 488 489 490 491 492 493 494 495 496 497 498 499 500 501
v 502 503 504 505 506 507 508 509 510 511 512 513 514 515 516 517 518 519 520
v 521 522 523 524 525 526 527 528 529 530 531 532 533 534 535 536 537 538 539
v 540 541 542 543 544 545 546 547 548 549 550 551 552 553 554 555 556 557 558
v 559 560 561 562 563 564 565 566 567 568 569 570 571 572 573 574 575 576 577
v 578 579 580 581 582 583 584 585 586 587 588 589 590 591 592 593 594 595 596
v 597 598 599 600 601 602 603 604 605 606 607 608 609 610 611 612 613 614 615
v 616 617 618 619 620 621 622 623 624 625 626 627 628 629 630 631 632 633 634
v 635 636 637 638 639 640 641 642 643 644 645 646 647 648 649 650 651 652 653
... skipped 1630382 lines ...
v -13680432 -13680433 13680434 13680435 -13680436 -13680437 -13680438
v -13680439 -13680440 -13680441 13680442 13680443 13680444 -13680445 -13680446
v -13680447 13680448 -13680449 13680450 13680451 -13680452 -13680453 13680454
v 13680455 -13680456 13680457 -13680458 -13680459 13680460 -13680461 13680462
v 13680463 -13680464 -13680465 13680466 13680467 -13680468 -13680469 13680470
v 13680471 -13680472 -13680473 -13680474 -13680475 13680476 -13680477 13680478
v -13680479 -13680480 13680481 13680482 -13680483 -13680484 -13680485
v -13680486 -13680487 -13680488 13680489 13680490 13680491 -13680492 -13680493
v -13680494 13680495 -13680496 13680497 13680498 -13680499 -13680500 13680501
v 13680502 -13680503 13680504 -13680505 -13680506 13680507 -13680508 13680509
v 13680510 -13680511 -13680512 13680513 13680514 -13680515 -13680516 13680517
v 13680518 -13680519 -13680520 -13680521 -13680522 13680523 -13680524 13680525
v -13680526 -13680527 13680528 13680529 -13680530 -13680531 -13680532
v -13680533 -13680534 -13680535 13680536 13680537 13680538 -13680539 -13680540
v -13680541 13680542 -13680543 13680544 13680545 -13680546 -13680547 13680548
v 13680549 -13680550 13680551 -13680552 -13680553 13680554 -13680555 13680556
v 13680557 -13680558 -13680559 13680560 13680561 -13680562 -13680563 13680564
v 13680565 -13680566 -13680567 -13680568 -13680569 13680570 -13680571 13680572
v -13680573 -13680574 13680575 13680576 -13680577 -13680578 -13680579
v -13680580 -13680581 -13680582 13680583 13680584 13680585 -13680586 -13680587
v -13680588 13680589 -13680590 13680591 13680592 -13680593 -13680594 13680595
v 13680596 -13680597 13680598 -13680599 -13680600 13680601 -13680602 13680603
v 13680604 -13680605 -13680606 13680607 13680608 -13680609 -13680610 13680611
v 13680612 -13680613 -13680614 -13680615 -13680616 13680617 -13680618 13680619
v -13680620 -13680621 13680622 13680623 -13680624 -13680625 -13680626
v -13680627 -13680628 -13680629 13680630 13680631 13680632 -13680633 -13680634
v -13680635 13680636 -13680637 13680638 13680639 -13680640 -13680641 -13680642
v 13680643 -13680644 13680645 13680646 -13680647 13680648 -13680649 13680650
v 13680651 -13680652 -13680653 13680654 13680655 -13680656 -13680657 13680658
v 13680659 -13680660 -13680661 -13680662 -13680663 13680664 -13680665 13680666
v -13680667 -13680668 13680669 13680670 -13680671 -13680672 -13680673
v -13680674 13680675 13680676 -13680677 -13680678 -13680679 -13680680 13680681
v 13680682 -13680683 -13680684 13680685 -13680686 13680687 13680688 -13680689
v -13680690 -13680691 -13680692 -13680693 13680694 13680695 -13680696
v -13680697 13680698 13680699 -13680700 13680701 13680702 -13680703 -13680704
v -13680705 -13680706 -13680707 13680708 -13680709 13680710 -13680711 13680712
v 13680713 -13680714 -13680715 -13680716 -13680717 -13680718 13680719
v -13680720 13680721 -13680722 13680723 13680724 -13680725 -13680726 -13680727
v -13680728 -13680729 13680730 -13680731 13680732 -13680733 13680734 13680735
v -13680736 -13680737 -13680738 -13680739 -13680740 13680741 -13680742
v 13680743 -13680744 13680745 13680746 -13680747 -13680748 -13680749 -13680750
v -13680751 13680752 -13680753 13680754 -13680755 13680756 13680757 -13680758
v -13680759 -13680760 -13680761 -13680762 13680763 -13680764 13680765
v -13680766 13680767 13680768 -13680769 -13680770 -13680771 -13680772
v -13680773 13680774 -13680775 13680776 -13680777 13680778 13680779 -13680780
v -13680781 -13680782 -13680783 -13680784 13680785 -13680786 13680787
v -13680788 13680789 13680790 -13680791 -13680792 13680793 -13680794 13680795
v 13680796 -13680797 -13680798 -13680799 -13680800 -13680801 13680802
v -13680803 13680804 13680805 -13680806 -13680807 -13680808 -13680809 13680810
v -13680811 -13680812 -13680813 -13680814 -13680815 13680816 -13680817
v -13680818 -13680819 -13680820 -13680821 -13680822 13680823 -13680824
v 13680825 13680826 -13680827 -13680828 13680829 13680830 13680831 -13680832 0
c 
c --- [ run-time profiling ] -------------------------------------------------
c 
c process time taken by individual solving procedures
c (percentage relative to process time for solving)
c 
c        14.28  100.00% search
c         8.41   58.93% unstable
c         7.88   55.17% parse
c         4.63   32.41% stable
c         1.24    8.66% lucky
c         0.00    0.00% simplify
c   =================================
c        14.28   62.55% solve
c 
c last line shows process time for solving
c (percentage relative to total process time)
c 
c --- [ statistics ] ---------------------------------------------------------
c 
c chronological:               664        65.87 %  of conflicts
c conflicts:                  1008        70.61    per second
c decisions:               1398226     97947.55    per second
c fixed:                   5722720        41.83 %  of all variables
c learned:                     945        93.75 %  per conflict
c learned_lits:               3390       100.00 %  learned literals
c minimized:                     0         0.00 %  learned literals
c shrunken:                    280         8.26 %  learned literals
c minishrunken:                 14         0.41 %  learned literals
c otfs:                          5         0.50 %  of conflict
c propagations:           52710033         3.69 M  per second
c rephased:                      1      1008.00    interval
c restarts:                     74        13.62    interval
c stabilizing:                   1         0.79 %  of conflicts
c subsumed:                      7         0.00 %  of all clauses
c strengthened:                  5         0.00 %  of all clauses
c 
c seconds are measured in process time for solving
c 
c --- [ resources ] ----------------------------------------------------------
c 
c total process time since initialization:        22.82    seconds
c total real time since initialization:           23.08    seconds
c maximum resident set size of process:         5738.75    MB
c 
c --- [ shutting down ] ------------------------------------------------------
c 
c exit 10
